82
83
105
81
53
98
95
0
88
60
0
78
120
75
72
60
76
79
83
0
66
0
83
77
56
68
79
72
111
91
89
76
67
88
121
77
80
74
90
0
109
51
103
85
78
81
92
76
105
80
87
66
101
72
0
74
101
92
70
81
85
99
61
84
73
65
122
0
94
104
108
82
85
82
90
133
85
85
72
96
98
61
95
82
95
89
71
0
50
137
85
77
124
0
101
92
78
89
71
88
